
(set-logic BV)

(define-fun shr1 ((x (BitVec 64))) (BitVec 64) (bvlshr x #x0000000000000001))
(define-fun shr4 ((x (BitVec 64))) (BitVec 64) (bvlshr x #x0000000000000004))
(define-fun shr16 ((x (BitVec 64))) (BitVec 64) (bvlshr x #x0000000000000010))
(define-fun shl1 ((x (BitVec 64))) (BitVec 64) (bvshl x #x0000000000000001))
(define-fun if0 ((x (BitVec 64)) (y (BitVec 64)) (z (BitVec 64))) (BitVec 64) (ite (= x #x0000000000000001) y z))
(define-fun func23  ((A (BitVec 64)) (B (BitVec 64)) (C (BitVec 64)) (D (BitVec 64)) ) (BitVec 64) (bvand (bvlshr (bvlshr C  D ) B ) A ))
(define-fun func24  ((A (BitVec 64)) (B (BitVec 64)) (C (BitVec 64)) ) (BitVec 64) (bvand (bvlshr B  C ) A ))
(define-fun func25  ((A (BitVec 64)) (B (BitVec 64)) ) (BitVec 64) (bvand (bvlshr B  #x0000000000000001 ) A ))
(define-fun func26  ((A (BitVec 64)) (B (BitVec 64)) ) (BitVec 64) (bvand (bvlshr B  #x0000000000000010 ) A ))
(define-fun func27  ((A (BitVec 64)) (B (BitVec 64)) ) (BitVec 64) (bvand (bvlshr B  #x0000000000000004 ) A ))
(define-fun func28  ((A (BitVec 64)) (B (BitVec 64)) ) (BitVec 64) (bvand (bvlshr A  B ) #x0000000000000001 ))
(define-fun func29  ((A (BitVec 64)) ) (BitVec 64) (bvand A  #x0000000000000001 ))
(define-fun func30  ((A (BitVec 64)) (B (BitVec 64)) (C (BitVec 64)) (D (BitVec 64)) ) (BitVec 64) (bvlshr (bvlshr (bvlshr C  D ) B ) A ))
(define-fun func31  ((A (BitVec 64)) (B (BitVec 64)) (C (BitVec 64)) ) (BitVec 64) (bvlshr (bvlshr (bvlshr C  #x0000000000000010 ) B ) A ))
(define-fun func32  ((A (BitVec 64)) (B (BitVec 64)) (C (BitVec 64)) ) (BitVec 64) (bvlshr (bvlshr B  C ) A ))
(define-fun func33  ((A (BitVec 64)) (B (BitVec 64)) ) (BitVec 64) (bvlshr (bvlshr B  #x0000000000000010 ) A ))
(define-fun func34  ((A (BitVec 64)) (B (BitVec 64)) ) (BitVec 64) (bvlshr (bvlshr B  #x0000000000000004 ) A ))
(define-fun func35  ((A (BitVec 64)) (B (BitVec 64)) ) (BitVec 64) (bvlshr (bvlshr B  #x0000000000000001 ) A ))
(define-fun func36  ((A (BitVec 64)) (B (BitVec 64)) ) (BitVec 64) (bvlshr (bvlshr A  B ) #x0000000000000001 ))
(define-fun func37  ((A (BitVec 64)) (B (BitVec 64)) ) (BitVec 64) (bvlshr (bvlshr A  B ) #x0000000000000004 ))
(define-fun func38  ((A (BitVec 64)) (B (BitVec 64)) ) (BitVec 64) (bvlshr A  B ))
(define-fun func39  ((A (BitVec 64)) (B (BitVec 64)) (C (BitVec 64)) ) (BitVec 64) (bvlshr (bvshl B  C ) A ))
(define-fun func40  ((A (BitVec 64)) (B (BitVec 64)) ) (BitVec 64) (bvlshr (bvshl B  #x0000000000000001 ) A ))
(define-fun func41  ((A (BitVec 64)) (B (BitVec 64)) ) (BitVec 64) (bvlshr (bvshl A  B ) #x0000000000000004 ))
(define-fun func42  ((A (BitVec 64)) (B (BitVec 64)) (C (BitVec 64)) ) (BitVec 64) (bvlshr (bvadd B  C ) A ))
(define-fun func43  ((A (BitVec 64)) (B (BitVec 64)) ) (BitVec 64) (bvlshr (bvnot B ) A ))
(define-fun func44  ((A (BitVec 64)) ) (BitVec 64) (bvlshr (bvnot A ) #x0000000000000010 ))
(define-fun func45  ((A (BitVec 64)) (B (BitVec 64)) (C (BitVec 64)) ) (BitVec 64) (bvor (bvlshr B  C ) A ))
(define-fun func46  ((A (BitVec 64)) ) (BitVec 64) (bvor A  #x0000000000000001 ))
(define-fun func47  ((A (BitVec 64)) (B (BitVec 64)) (C (BitVec 64)) ) (BitVec 64) (bvshl (bvlshr B  C ) A ))
(define-fun func48  ((A (BitVec 64)) (B (BitVec 64)) ) (BitVec 64) (bvshl (bvlshr B  #x0000000000000001 ) A ))
(define-fun func49  ((A (BitVec 64)) (B (BitVec 64)) ) (BitVec 64) (bvshl (bvlshr A  B ) #x0000000000000001 ))
(define-fun func51  ((A (BitVec 64)) (B (BitVec 64)) (C (BitVec 64)) ) (BitVec 64) (bvshl (bvshl B  C ) A ))
(define-fun func52  ((A (BitVec 64)) (B (BitVec 64)) ) (BitVec 64) (bvshl (bvshl B  #x0000000000000001 ) A ))
(define-fun func53  ((A (BitVec 64)) (B (BitVec 64)) ) (BitVec 64) (bvshl (bvshl A  B ) #x0000000000000001 ))
(define-fun func54  ((A (BitVec 64)) (B (BitVec 64)) (C (BitVec 64)) ) (BitVec 64) (bvadd (bvlshr B  C ) A ))
(define-fun func55  ((A (BitVec 64)) ) (BitVec 64) (bvadd A  #x0000000000000001 ))
(define-fun func56  ((A (BitVec 64)) (B (BitVec 64)) (C (BitVec 64)) ) (BitVec 64) (bvadd (bvshl B  C ) A ))
(define-fun func57  ((A (BitVec 64)) (B (BitVec 64)) ) (BitVec 64) (bvadd (bvshl B  #x0000000000000001 ) A ))
(define-fun func58  ((A (BitVec 64)) ) (BitVec 64) (bvnot (bvshl A  #x0000000000000001 )))
(synth-fun f ( (x (BitVec 64))) (BitVec 64)
(
(Start (BitVec 64) (
   #x0000000000000000
   #x0000000000000001
   x
   (func25 Start Start)
   (func26 Start Start)
   (func27 Start Start)
   (func31 Start Start Start)
   (func32 Start Start Start)
   (func34 Start Start)
   (func36 Start Start)
   (func37 Start Start)
   (func38 Start Start)
   (func39 Start Start Start)
   (func40 Start Start)
   (func43 Start Start)
   (func44 Start)
   (func46 Start)
   (func48 Start Start)
   (func49 Start Start)
   (func52 Start Start)
   (func53 Start Start)
   (func54 Start Start Start)
   (func56 Start Start Start)
   (func57 Start Start)
   (shl1 Start)
   (bvand Start Start)
   (bvor Start Start)
   (bvxor Start Start)
   (if0 Start Start Start)
))
))
(constraint (= (f #xaa4d4bf32f249246) #x549a97e65e49248c))
(constraint (= (f #xdc62cfcb423634ae) #xb8c59f96846c695c))
(constraint (= (f #x4f389408ec173996) #x9e712811d82e732c))
(constraint (= (f #xcfe621e4e7e2e1c0) #x9fcc43c9cfc5c380))
(constraint (= (f #x3540cbbd6bd70fde) #x6a81977ad7ae1fbc))
(constraint (= (f #xfffffffffffffff8) #xfffffffffffffff0))
(constraint (= (f #xfffffffffffffffa) #xfffffffffffffff4))
(constraint (= (f #x0000000000034736) #x0000000000000004))
(constraint (= (f #x0000000000036c1c) #x0000000000000000))
(constraint (= (f #x00000000000202fa) #x0000000000000004))
(constraint (= (f #x00000000000232c4) #x0000000000000000))
(constraint (= (f #x000000000002fd32) #x0000000000000004))
(constraint (= (f #xff497efd57109301) #xff497efd57109301))
(constraint (= (f #x2b41ea2c27e7bb75) #x2b41ea2c27e7bb75))
(constraint (= (f #x467725175e832af7) #x467725175e832af7))
(constraint (= (f #x1955227acd508647) #x1955227acd508647))
(constraint (= (f #x5929abf0e0d4933f) #x5929abf0e0d4933f))
(constraint (= (f #xfffffffffffffff9) #xfffffffffffffff9))
(constraint (= (f #xfffffffffffffffb) #xfffffffffffffffb))
(constraint (= (f #x000000000003b015) #x000000000003b015))
(constraint (= (f #x0000000000030a0d) #x0000000000030a0d))
(constraint (= (f #x000000000002d12d) #x000000000002d12d))
(constraint (= (f #x000000000003b865) #x000000000003b865))
(constraint (= (f #x00000000000243c9) #x00000000000243c9))
(constraint (= (f #x7c28b9b668c33370) #xf851736cd18666e0))
(constraint (= (f #xeb04bc68d9c304f8) #xd60978d1b38609f0))
(constraint (= (f #x72e392d3c62de761) #x72e392d3c62de761))
(constraint (= (f #x89b35b3b86e2f38a) #x1366b6770dc5e714))
(constraint (= (f #x6daf95ce22d71f76) #xdb5f2b9c45ae3eec))
(constraint (= (f #xc4f1fb882a47d298) #x89e3f710548fa530))
(constraint (= (f #xd8d26746d36ce695) #xd8d26746d36ce695))
(constraint (= (f #xffed6c56696a9ec5) #xffed6c56696a9ec5))
(constraint (= (f #x7fb6f0a196175e4f) #x7fb6f0a196175e4f))
(constraint (= (f #x4b348b6ce7067d5b) #x4b348b6ce7067d5b))
(constraint (= (f #x00000000000366b6) #x0000000000000004))
(constraint (= (f #x00000000000222a8) #x0000000000000000))
(constraint (= (f #xfffffffffffffffb) #xfffffffffffffffb))
(constraint (= (f #xfffffffffffffffa) #xfffffffffffffff4))
(constraint (= (f #x0000000000025c25) #x0000000000025c25))
(check-synth)
